n_res = 4;
rcap = [45, 40, 196, 198];
rtype = [1, 1, 2, 2];
n_tasks = 30;
modes = [ {1, 2, 3}, {4, 5, 6}, {7, 8, 9}, {10, 11, 12}, {13, 14, 15}, {16, 17, 18}, {19, 20, 21}, {22, 23, 24}, {25, 26, 27}, {28, 29, 30}, {31, 32, 33}, {34, 35, 36}, {37, 38, 39}, {40, 41, 42}, {43, 44, 45}, {46, 47, 48}, {49, 50, 51}, {52, 53, 54}, {55, 56, 57}, {58, 59, 60}, {61, 62, 63}, {64, 65, 66}, {67, 68, 69}, {70, 71, 72}, {73, 74, 75}, {76, 77, 78}, {79, 80, 81}, {82, 83, 84}, {85, 86, 87}, {88, 89, 90} ];
succ = [ {5, 7, 12}, {6, 10, 16}, {4, 13, 19}, {9, 14}, {17}, {8, 15, 17}, {21, 22, 23}, {9, 14, 29}, {11, 18}, {23}, {21, 22}, {14, 20}, {20, 21}, {18}, {18, 20}, {17, 26}, {27}, {24}, {30}, {22, 24, 29}, {28, 30}, {25, 26}, {24, 25, 26}, {30}, {28}, {27}, {28}, {}, {}, {} ];
n_opt = 90;
dur = [3, 8, 10, 4, 7, 8, 5, 9, 10, 1, 8, 8, 3, 4, 8, 3, 3, 4, 6, 8, 8, 2, 3, 9, 1, 1, 5, 2, 2, 3, 2, 4, 9, 3, 6, 10, 4, 5, 10, 4, 8, 9, 7, 7, 8, 3, 4, 10, 8, 8, 10, 4, 5, 5, 3, 3, 8, 1, 3, 5, 2, 7, 10, 4, 4, 5, 2, 7, 8, 3, 6, 8, 1, 4, 6, 5, 6, 7, 4, 7, 10, 2, 8, 10, 2, 3, 6, 6, 8, 10];
rreq = [|  7,  3,  1,  6,  6,  6,  4,  3,  1,  6,  4,  3,  7,  6,  1,  8,  6,  3,  3,  2,  3,  9,  8,  6,  5,  5,  3,  4,  5,  4,  4,  4,  2,  4,  4,  2, 10,  9,  8, 10,  7,  1,  7,  5,  4,  7,  7,  3,  8,  8,  8,  1,  1,  1,  7,  6,  6,  1,  1,  1,  5,  5,  5,  5,  5,  3,  9,  8,  7,  9,  5,  2,  7,  7,  6,  8,  5,  4,  5,  4,  4,  8,  8,  8,  9,  7,  7,  8,  8,  8
        |  7,  4,  3,  4,  4,  4,  9,  6,  6,  3,  2,  1,  5,  5,  3,  3,  3,  2, 10,  8,  5,  8,  7,  4,  5,  6,  4, 10,  9,  3,  5,  3,  2,  4,  3,  3,  8,  3,  1,  7,  6,  3,  6,  5,  3,  2,  2,  1,  8,  7,  7,  7,  5,  6,  5,  4,  3,  4,  4,  1,  8,  7,  6,  8,  5,  5,  8,  4,  3,  4,  3,  2,  5,  5,  5,  9,  6,  5, 10, 10, 10,  5,  4,  3, 10,  9,  9,  9,  8,  7
        |  7,  4,  2,  5,  5,  5,  8,  5,  4,  5,  1,  3,  8,  7,  4,  8,  8,  5,  6,  3,  4,  7,  5,  2,  7,  8,  6,  4,  4,  4,  7,  7,  6,  7,  4,  3,  6,  4,  1,  8,  6,  4,  9,  9,  8,  9,  9,  9,  5,  5,  5,  5,  4,  3,  5,  5,  5,  5,  5,  4, 10,  7,  4,  5,  4,  3,  5,  5,  5,  4,  3,  3,  7,  4,  2,  7,  6,  3,  4,  3,  2,  9,  8,  7,  7,  5,  4,  6,  5,  2
        |  7,  4,  4,  5,  3,  1,  8,  7,  6,  9,  8,  7,  6,  3,  2,  4,  6,  1,  8,  5,  7,  5,  5,  4,  4,  3,  2,  3,  3,  3,  7,  6,  5,  6,  3,  1,  2,  2,  1,  6,  4,  3,  3,  4,  3,  7,  4,  3,  7,  9,  6, 10,  6,  7,  7, 10,  6, 10,  7,  2,  4,  4,  3,  5,  6,  2,  9,  8,  7,  3,  2,  2,  4,  2,  2,  7,  7,  6,  7,  4,  4,  8,  5,  3, 10,  6,  4,  8,  6,  3 |];
